p wcnf 21 9
10 -1 -2 0
10 -1 -4 0
10 -1 -5 0
10 -1 -7 0
10 -2 -4 0
10 -2 -6 0
10 -2 -7 0
10 -3 -4 0
10 -3 -9 0
10 -5 -6 0
10 -5 -9 0
10 -7 -9 0
1 1 1 0
1 2 2 0
1 3 3 0
1 4 4 0
1 5 5 0
1 6 6 0
1 7 7 0
1 8 8 0
1 9 9 0
